0000000000000000
0000000110000000
0000001001000000
0000010000100000
0000000000000000
0000000000000000
0000000000000000
0000010000000000
0000010000000000
0000111000000000
0001001000000000
0010000000000000
0001001000000000
0000000000000000
0000000000000000
0000000000000000
